set Cells := 119 136 137 138 139 140 154 155 156 157 158 159 160 161 162 163 164 175 176 177 178 179 180 181 182 183 184 185 196 197 198 199 200 201 202 203 204 205 206 217 218 219 220 221 222 223 238 239 240 259 260 261 262 281 282 283 284 285 286 301 302 303 304 305 306 307 308 322 323 324 325 326 327 328 329 343 344 345 346 347 348 349 367 368 369 370 391 ;

set E:= (119,140) (136,137) (136,157) (137,138) (137,158) (138,139) (138,159) (139,140) (139,160) (140,161) (154,155) (154,175) (155,156) (155,176) (156,157) (156,177) (157,158) (157,178) (158,159) (158,179) (159,160) (159,180) (160,161) (160,181) (161,162) (161,182) (162,163) (162,183) (163,164) (163,184) (164,185) (175,176) (175,196) (176,177) (176,197) (177,178) (177,198) (178,179) (178,199) (179,180) (179,200) (180,181) (180,201) (181,182) (181,202) (182,183) (182,203) (183,184) (183,204) (184,185) (184,205) (185,206) (196,197) (196,217) (197,198) (197,218) (198,199) (198,219) (199,200) (199,220) (200,201) (200,221) (201,202) (201,222) (202,203) (202,223) (203,204) (204,205) (205,206) (217,218) (217,238) (218,219) (218,239) (219,220) (219,240) (220,221) (221,222) (222,223) (238,239) (238,259) (239,240) (239,260) (240,261) (259,260) (260,261) (260,281) (261,262) (261,282) (262,283) (281,282) (281,302) (282,283) (282,303) (283,284) (283,304) (284,285) (284,305) (285,286) (285,306) (286,307) (301,302) (301,322) (302,303) (302,323) (303,304) (303,324) (304,305) (304,325) (305,306) (305,326) (306,307) (306,327) (307,308) (307,328) (308,329) (322,323) (322,343) (323,324) (323,344) (324,325) (324,345) (325,326) (325,346) (326,327) (326,347) (327,328) (327,348) (328,329) (328,349) (343,344) (344,345) (345,346) (346,347) (346,367) (347,348) (347,368) (348,349) (348,369) (349,370) (367,368) (368,369) (369,370) (370,391) ; 
set Landuses := ForestDryPoor ForestDryRich ForestWetPoor ForestWetRich OpenDryPoor OpenDryRich OpenWetPoor OpenWetRich ;
param PhyloDiversity default 0 := [ForestDryPoor,163] 0.95 [ForestDryRich,119] 0.85 [ForestDryRich,136] 0.73 [ForestDryRich,137] 0.71 [ForestDryRich,138] 0.67 [ForestDryRich,139] 0.47 [ForestDryRich,140] 0.57 [ForestDryRich,154] 0.45 [ForestDryRich,156] 0.61 [ForestDryRich,157] 0.81 [ForestDryRich,158] 0.84 [ForestDryRich,159] 0.76 [ForestDryRich,160] 0.7 [ForestDryRich,161] 0.49 [ForestDryRich,162] 0.76 [ForestDryRich,163] 1 [ForestDryRich,175] 0.53 [ForestDryRich,176] 0.59 [ForestDryRich,177] 0.9 [ForestDryRich,178] 0.9 [ForestDryRich,179] 0.9 [ForestDryRich,180] 0.82 [ForestDryRich,181] 0.81 [ForestDryRich,182] 0.66 [ForestDryRich,183] 0.83 [ForestDryRich,197] 0.89 [ForestDryRich,198] 0.99 [ForestDryRich,199] 0.92 [ForestDryRich,217] 0.84 [ForestDryRich,218] 0.89 [ForestDryRich,219] 0.97 [ForestDryRich,239] 0.89 [ForestDryRich,260] 0.82 [ForestDryRich,261] 0.83 [ForestDryRich,262] 0.87 [ForestDryRich,281] 0.7 [ForestDryRich,282] 0.68 [ForestDryRich,285] 0.86 [ForestDryRich,286] 0.82 [ForestDryRich,302] 0.44 [ForestDryRich,303] 0.67 [ForestDryRich,304] 0.77 [ForestDryRich,305] 0.76 [ForestDryRich,307] 0.79 [ForestDryRich,322] 0.21 [ForestDryRich,323] 0.42 [ForestDryRich,324] 0.63 [ForestDryRich,325] 0.75 [ForestDryRich,326] 0.75 [ForestDryRich,327] 0.8 [ForestDryRich,328] 0.76 [ForestDryRich,343] 0.27 [ForestDryRich,344] 0.54 [ForestDryRich,345] 0.51 [ForestDryRich,346] 0.66 [ForestDryRich,347] 0.72 [ForestDryRich,348] 0.71 [ForestDryRich,349] 0.72 [ForestDryRich,367] 0.53 [ForestDryRich,368] 0.57 [ForestDryRich,370] 0.27 [ForestDryRich,391] 0.26 [ForestWetRich,119] 0.86 [ForestWetRich,136] 0.73 [ForestWetRich,137] 0.71 [ForestWetRich,138] 0.67 [ForestWetRich,139] 0.47 [ForestWetRich,140] 0.57 [ForestWetRich,154] 0.45 [ForestWetRich,156] 0.61 [ForestWetRich,157] 0.81 [ForestWetRich,158] 0.84 [ForestWetRich,159] 0.76 [ForestWetRich,160] 0.7 [ForestWetRich,161] 0.49 [ForestWetRich,162] 0.77 [ForestWetRich,163] 0.99 [ForestWetRich,175] 0.53 [ForestWetRich,176] 0.59 [ForestWetRich,177] 0.9 [ForestWetRich,178] 0.9 [ForestWetRich,179] 0.9 [ForestWetRich,180] 0.82 [ForestWetRich,181] 0.81 [ForestWetRich,182] 0.66 [ForestWetRich,197] 0.89 [ForestWetRich,198] 0.99 [ForestWetRich,199] 0.92 [ForestWetRich,217] 0.84 [ForestWetRich,218] 0.89 [ForestWetRich,219] 0.97 [ForestWetRich,239] 0.89 [ForestWetRich,260] 0.82 [ForestWetRich,261] 0.83 [ForestWetRich,262] 0.87 [ForestWetRich,281] 0.7 [ForestWetRich,282] 0.68 [ForestWetRich,283] 0.83 [ForestWetRich,284] 0.81 [ForestWetRich,285] 0.86 [ForestWetRich,286] 0.82 [ForestWetRich,303] 0.67 [ForestWetRich,304] 0.78 [ForestWetRich,305] 0.76 [ForestWetRich,307] 0.79 [ForestWetRich,326] 0.75 [ForestWetRich,327] 0.8 [ForestWetRich,328] 0.76 [ForestWetRich,345] 0.51 [ForestWetRich,346] 0.66 [ForestWetRich,347] 0.72 [ForestWetRich,348] 0.72 [ForestWetRich,349] 0.72 [ForestWetRich,367] 0.53 [ForestWetRich,368] 0.57 [ForestWetRich,370] 0.27 [ForestWetRich,391] 0.26 [OpenDryPoor,163] 0.98 [OpenDryRich,119] 0.86 [OpenDryRich,136] 0.73 [OpenDryRich,137] 0.71 [OpenDryRich,138] 0.67 [OpenDryRich,139] 0.47 [OpenDryRich,140] 0.57 [OpenDryRich,154] 0.45 [OpenDryRich,156] 0.61 [OpenDryRich,157] 0.81 [OpenDryRich,158] 0.84 [OpenDryRich,159] 0.76 [OpenDryRich,160] 0.7 [OpenDryRich,161] 0.49 [OpenDryRich,162] 0.76 [OpenDryRich,163] 1 [OpenDryRich,175] 0.53 [OpenDryRich,176] 0.59 [OpenDryRich,177] 0.9 [OpenDryRich,178] 0.9 [OpenDryRich,179] 0.9 [OpenDryRich,180] 0.82 [OpenDryRich,181] 0.81 [OpenDryRich,182] 0.66 [OpenDryRich,183] 0.83 [OpenDryRich,197] 0.89 [OpenDryRich,198] 0.99 [OpenDryRich,199] 0.92 [OpenDryRich,217] 0.84 [OpenDryRich,218] 0.89 [OpenDryRich,219] 0.97 [OpenDryRich,239] 0.89 [OpenDryRich,260] 0.82 [OpenDryRich,261] 0.83 [OpenDryRich,262] 0.87 [OpenDryRich,281] 0.7 [OpenDryRich,282] 0.68 [OpenDryRich,285] 0.86 [OpenDryRich,286] 0.82 [OpenDryRich,302] 0.44 [OpenDryRich,303] 0.67 [OpenDryRich,304] 0.77 [OpenDryRich,305] 0.76 [OpenDryRich,307] 0.79 [OpenDryRich,322] 0.21 [OpenDryRich,323] 0.42 [OpenDryRich,324] 0.63 [OpenDryRich,325] 0.75 [OpenDryRich,326] 0.75 [OpenDryRich,327] 0.8 [OpenDryRich,328] 0.76 [OpenDryRich,343] 0.27 [OpenDryRich,344] 0.54 [OpenDryRich,345] 0.51 [OpenDryRich,346] 0.66 [OpenDryRich,347] 0.72 [OpenDryRich,348] 0.71 [OpenDryRich,349] 0.72 [OpenDryRich,367] 0.53 [OpenDryRich,368] 0.57 [OpenDryRich,370] 0.27 [OpenDryRich,391] 0.26 [OpenWetRich,119] 0.86 [OpenWetRich,136] 0.73 [OpenWetRich,137] 0.71 [OpenWetRich,138] 0.67 [OpenWetRich,139] 0.47 [OpenWetRich,140] 0.57 [OpenWetRich,154] 0.45 [OpenWetRich,156] 0.61 [OpenWetRich,157] 0.81 [OpenWetRich,158] 0.84 [OpenWetRich,159] 0.76 [OpenWetRich,160] 0.7 [OpenWetRich,161] 0.49 [OpenWetRich,162] 0.77 [OpenWetRich,163] 1 [OpenWetRich,175] 0.53 [OpenWetRich,176] 0.59 [OpenWetRich,177] 0.9 [OpenWetRich,178] 0.9 [OpenWetRich,179] 0.9 [OpenWetRich,180] 0.82 [OpenWetRich,181] 0.81 [OpenWetRich,182] 0.66 [OpenWetRich,197] 0.89 [OpenWetRich,198] 0.99 [OpenWetRich,199] 0.92 [OpenWetRich,217] 0.84 [OpenWetRich,218] 0.89 [OpenWetRich,219] 0.97 [OpenWetRich,239] 0.89 [OpenWetRich,260] 0.82 [OpenWetRich,261] 0.83 [OpenWetRich,262] 0.87 [OpenWetRich,281] 0.7 [OpenWetRich,282] 0.68 [OpenWetRich,283] 0.83 [OpenWetRich,284] 0.81 [OpenWetRich,285] 0.86 [OpenWetRich,286] 0.82 [OpenWetRich,303] 0.67 [OpenWetRich,304] 0.78 [OpenWetRich,305] 0.76 [OpenWetRich,307] 0.8 [OpenWetRich,326] 0.75 [OpenWetRich,327] 0.81 [OpenWetRich,328] 0.77 [OpenWetRich,345] 0.51 [OpenWetRich,346] 0.66 [OpenWetRich,347] 0.72 [OpenWetRich,348] 0.72 [OpenWetRich,349] 0.74 [OpenWetRich,367] 0.53 [OpenWetRich,368] 0.57 [OpenWetRich,370] 0.28 [OpenWetRich,391] 0.27 ;
param Richness default 0 := [ForestDryPoor,163] 0.87927869041916 [ForestDryRich,119] 0.89 [ForestDryRich,136] 0.606838122308254 [ForestDryRich,137] 0.621786838769913 [ForestDryRich,138] 0.502989993691444 [ForestDryRich,139] 0.325022161751986 [ForestDryRich,140] 0.512289781011641 [ForestDryRich,154] 0.257720695640892 [ForestDryRich,156] 0.357971225008368 [ForestDryRich,157] 0.606832305341959 [ForestDryRich,158] 0.660829355232417 [ForestDryRich,159] 0.561679628491402 [ForestDryRich,160] 0.51408128798008 [ForestDryRich,161] 0.367620649188757 [ForestDryRich,162] 0.518580513289198 [ForestDryRich,163] 0.979196723421337 [ForestDryRich,175] 0.367758115567267 [ForestDryRich,176] 0.384500524997711 [ForestDryRich,177] 0.83868946954608 [ForestDryRich,178] 0.841364469602704 [ForestDryRich,179] 0.849870986640453 [ForestDryRich,180] 0.696388295423239 [ForestDryRich,181] 0.631347953155637 [ForestDryRich,182] 0.498996477294713 [ForestDryRich,183] 0.576605151100084 [ForestDryRich,197] 0.817257519811392 [ForestDryRich,198] 0.935807532258332 [ForestDryRich,199] 0.916965969158337 [ForestDryRich,217] 0.812632950078696 [ForestDryRich,218] 0.889856382552534 [ForestDryRich,219] 0.962836172431707 [ForestDryRich,239] 0.845458305180073 [ForestDryRich,260] 0.494207762181759 [ForestDryRich,261] 0.622280554920435 [ForestDryRich,262] 0.837272320501506 [ForestDryRich,281] 0.36810650229454 [ForestDryRich,282] 0.419890751838684 [ForestDryRich,285] 0.803035248443484 [ForestDryRich,286] 0.746046281531453 [ForestDryRich,302] 0.255093638785183 [ForestDryRich,303] 0.515154905579984 [ForestDryRich,304] 0.61374802172184 [ForestDryRich,305] 0.583188207149506 [ForestDryRich,307] 0.618580632060766 [ForestDryRich,322] 0.129349256935529 [ForestDryRich,323] 0.255563371740282 [ForestDryRich,324] 0.476838290691376 [ForestDryRich,325] 0.599297807067633 [ForestDryRich,326] 0.590979325845838 [ForestDryRich,327] 0.655516276806593 [ForestDryRich,328] 0.618403995037079 [ForestDryRich,343] 0.196969677694142 [ForestDryRich,344] 0.377674402445555 [ForestDryRich,345] 0.334854874387383 [ForestDryRich,346] 0.465159669518471 [ForestDryRich,347] 0.544251420348883 [ForestDryRich,348] 0.53486212849617 [ForestDryRich,349] 0.587767964154482 [ForestDryRich,367] 0.347887941747904 [ForestDryRich,368] 0.356058821827173 [ForestDryRich,370] 0.113236640542746 [ForestDryRich,391] 0.11 [ForestWetRich,119] 0.9 [ForestWetRich,136] 0.63 [ForestWetRich,137] 0.65 [ForestWetRich,138] 0.52 [ForestWetRich,139] 0.35 [ForestWetRich,140] 0.53 [ForestWetRich,154] 0.26 [ForestWetRich,156] 0.38 [ForestWetRich,157] 0.65 [ForestWetRich,158] 0.7 [ForestWetRich,159] 0.61 [ForestWetRich,160] 0.57 [ForestWetRich,161] 0.38 [ForestWetRich,162] 0.52 [ForestWetRich,163] 0.99 [ForestWetRich,175] 0.39 [ForestWetRich,176] 0.44 [ForestWetRich,177] 0.9 [ForestWetRich,178] 0.9 [ForestWetRich,179] 0.89 [ForestWetRich,180] 0.72 [ForestWetRich,181] 0.65 [ForestWetRich,182] 0.51 [ForestWetRich,197] 0.9 [ForestWetRich,198] 1 [ForestWetRich,199] 0.94 [ForestWetRich,217] 0.83 [ForestWetRich,218] 0.9 [ForestWetRich,219] 1 [ForestWetRich,239] 0.92 [ForestWetRich,260] 0.75 [ForestWetRich,261] 0.77 [ForestWetRich,262] 0.87 [ForestWetRich,281] 0.58 [ForestWetRich,282] 0.56 [ForestWetRich,283] 0.81 [ForestWetRich,284] 0.77 [ForestWetRich,285] 0.85 [ForestWetRich,286] 0.78 [ForestWetRich,303] 0.53 [ForestWetRich,304] 0.69 [ForestWetRich,305] 0.69 [ForestWetRich,307] 0.73 [ForestWetRich,326] 0.64 [ForestWetRich,327] 0.73 [ForestWetRich,328] 0.67 [ForestWetRich,345] 0.36 [ForestWetRich,346] 0.51 [ForestWetRich,347] 0.6 [ForestWetRich,348] 0.58 [ForestWetRich,349] 0.61 [ForestWetRich,367] 0.38 [ForestWetRich,368] 0.39 [ForestWetRich,370] 0.12 [ForestWetRich,391] 0.11 [OpenDryPoor,163] 0.979196723421337 [OpenDryRich,119] 0.9 [OpenDryRich,136] 0.616625833958387 [OpenDryRich,137] 0.631502258125693 [OpenDryRich,138] 0.502989993691444 [OpenDryRich,139] 0.325022161751986 [OpenDryRich,140] 0.512289781011641 [OpenDryRich,154] 0.257720695640892 [OpenDryRich,156] 0.357971225008368 [OpenDryRich,157] 0.606832305341959 [OpenDryRich,158] 0.670406592264771 [OpenDryRich,159] 0.571040955632925 [OpenDryRich,160] 0.523261310979724 [OpenDryRich,161] 0.367620649188757 [OpenDryRich,162] 0.518580513289198 [OpenDryRich,163] 0.989188526721555 [OpenDryRich,175] 0.367758115567267 [OpenDryRich,176] 0.384500524997711 [OpenDryRich,177] 0.83868946954608 [OpenDryRich,178] 0.850818002969027 [OpenDryRich,179] 0.85952861148864 [OpenDryRich,180] 0.706196581274271 [OpenDryRich,181] 0.631347953155637 [OpenDryRich,182] 0.498996477294713 [OpenDryRich,183] 0.576605151100084 [OpenDryRich,197] 0.817257519811392 [OpenDryRich,198] 0.945260133594275 [OpenDryRich,199] 0.926825818289071 [OpenDryRich,217] 0.812632950078696 [OpenDryRich,218] 0.889856382552534 [OpenDryRich,219] 0.962836172431707 [OpenDryRich,239] 0.845458305180073 [OpenDryRich,260] 0.494207762181759 [OpenDryRich,261] 0.622280554920435 [OpenDryRich,262] 0.837272320501506 [OpenDryRich,281] 0.36810650229454 [OpenDryRich,282] 0.419890751838684 [OpenDryRich,285] 0.803035248443484 [OpenDryRich,286] 0.746046281531453 [OpenDryRich,303] 0.515154905579984 [OpenDryRich,304] 0.61374802172184 [OpenDryRich,305] 0.583188207149506 [OpenDryRich,307] 0.618580632060766 [OpenWetRich,119] 0.91 [OpenWetRich,136] 0.63 [OpenWetRich,137] 0.65 [OpenWetRich,138] 0.52 [OpenWetRich,139] 0.35 [OpenWetRich,140] 0.53 [OpenWetRich,154] 0.26 [OpenWetRich,156] 0.38 [OpenWetRich,157] 0.65 [OpenWetRich,158] 0.7 [OpenWetRich,159] 0.61 [OpenWetRich,160] 0.57 [OpenWetRich,161] 0.38 [OpenWetRich,162] 0.52 [OpenWetRich,163] 1 [OpenWetRich,175] 0.39 [OpenWetRich,176] 0.44 [OpenWetRich,177] 0.9 [OpenWetRich,178] 0.9 [OpenWetRich,179] 0.89 [OpenWetRich,180] 0.72 [OpenWetRich,181] 0.65 [OpenWetRich,182] 0.51 [OpenWetRich,197] 0.9 [OpenWetRich,198] 1 [OpenWetRich,199] 0.94 [OpenWetRich,217] 0.83 [OpenWetRich,218] 0.9 [OpenWetRich,219] 1 [OpenWetRich,239] 0.92 [OpenWetRich,260] 0.75 [OpenWetRich,261] 0.77 [OpenWetRich,262] 0.87 [OpenWetRich,281] 0.58 [OpenWetRich,282] 0.56 [OpenWetRich,283] 0.81 [OpenWetRich,284] 0.77 [OpenWetRich,285] 0.85 [OpenWetRich,286] 0.78 [OpenWetRich,303] 0.53 [OpenWetRich,304] 0.69 [OpenWetRich,305] 0.69 [OpenWetRich,307] 0.73 ;
param Rarity default 0 := [ForestDryPoor,163] 0.139885246203048 [ForestDryRich,119] 0.21 [ForestDryRich,136] 0.0391508466005325 [ForestDryRich,137] 0.0680079354904592 [ForestDryRich,138] 0.0773830759525299 [ForestDryRich,139] 0.0464317373931408 [ForestDryRich,140] 0.260977812968195 [ForestDryRich,154] 0.0693863411340863 [ForestDryRich,156] 0.103623249344528 [ForestDryRich,157] 0.280076448619366 [ForestDryRich,158] 0.287317110970616 [ForestDryRich,159] 0.131058579981327 [ForestDryRich,160] 0.110160275995731 [ForestDryRich,161] 0.0386969104409218 [ForestDryRich,162] 0.00997270217863843 [ForestDryRich,163] 0.199836066004355 [ForestDryRich,175] 0.0848672574386001 [ForestDryRich,176] 0.0611705380678177 [ForestDryRich,177] 0.372750875353813 [ForestDryRich,178] 0.387594868019223 [ForestDryRich,179] 0.444250743016601 [ForestDryRich,180] 0.372714862339199 [ForestDryRich,181] 0.194260908663273 [ForestDryRich,182] 0.146763669792563 [ForestDryRich,183] 0.169004958081059 [ForestDryRich,197] 0.308741729706526 [ForestDryRich,198] 0.406461857445538 [ForestDryRich,199] 0.581731098713353 [ForestDryRich,217] 0.244768960867077 [ForestDryRich,218] 0.355942553021014 [ForestDryRich,219] 0.587330065183342 [ForestDryRich,239] 0.312451982349157 [ForestDryRich,260] 0.131788736581802 [ForestDryRich,261] 0.428322979360819 [ForestDryRich,262] 0.538933907449246 [ForestDryRich,281] 0.114239948987961 [ForestDryRich,282] 0.239937572479248 [ForestDryRich,285] 0.415688834488392 [ForestDryRich,286] 0.181729222424328 [ForestDryRich,302] 0.176603288389742 [ForestDryRich,303] 0.233277693092823 [ForestDryRich,304] 0.144411299228668 [ForestDryRich,305] 0.160588057041168 [ForestDryRich,307] 0.169474145770073 [ForestDryRich,325] 0.0869948429614305 [ForestDryRich,326] 0.0844256179779768 [ForestDryRich,327] 0.0987764252722263 [ForestDryRich,328] 0.110758924484253 [ForestDryRich,346] 0.102335127294064 [ForestDryRich,347] 0.0830214031040668 [ForestDryRich,348] 0.093835461139679 [ForestDryRich,349] 0.125262025147676 [ForestDryRich,367] 0.0640846208482981 [ForestDryRich,368] 0.0655897829681635 [ForestDryRich,370] 0.2076005076617 [ForestDryRich,391] 0.28 [ForestWetRich,119] 0.33 [ForestWetRich,136] 0.1 [ForestWetRich,137] 0.12 [ForestWetRich,138] 0.14 [ForestWetRich,139] 0.05 [ForestWetRich,140] 0.27 [ForestWetRich,154] 0.07 [ForestWetRich,156] 0.19 [ForestWetRich,157] 0.35 [ForestWetRich,158] 0.35 [ForestWetRich,159] 0.19 [ForestWetRich,160] 0.18 [ForestWetRich,161] 0.04 [ForestWetRich,162] 0.05 [ForestWetRich,163] 0.2 [ForestWetRich,175] 0.09 [ForestWetRich,176] 0.07 [ForestWetRich,177] 0.44 [ForestWetRich,178] 0.45 [ForestWetRich,179] 0.49 [ForestWetRich,180] 0.43 [ForestWetRich,181] 0.25 [ForestWetRich,182] 0.15 [ForestWetRich,197] 0.34 [ForestWetRich,198] 0.46 [ForestWetRich,199] 0.63 [ForestWetRich,217] 0.25 [ForestWetRich,218] 0.36 [ForestWetRich,219] 0.61 [ForestWetRich,239] 0.34 [ForestWetRich,260] 0.2 [ForestWetRich,261] 0.53 [ForestWetRich,262] 0.56 [ForestWetRich,281] 0.18 [ForestWetRich,282] 0.32 [ForestWetRich,283] 0.44 [ForestWetRich,284] 0.33 [ForestWetRich,285] 0.44 [ForestWetRich,286] 0.19 [ForestWetRich,303] 0.24 [ForestWetRich,304] 0.18 [ForestWetRich,305] 0.19 [ForestWetRich,307] 0.2 [ForestWetRich,326] 0.12 [ForestWetRich,327] 0.14 [ForestWetRich,328] 0.12 [ForestWetRich,345] 0.05 [ForestWetRich,346] 0.15 [ForestWetRich,347] 0.12 [ForestWetRich,348] 0.13 [ForestWetRich,349] 0.13 [ForestWetRich,367] 0.12 [ForestWetRich,368] 0.12 [ForestWetRich,370] 0.22 [ForestWetRich,391] 0.28 [OpenDryPoor,163] 0.179852459403919 [OpenDryRich,119] 0.24 [OpenDryRich,136] 0.0978771165013313 [OpenDryRich,137] 0.116585032269359 [OpenDryRich,138] 0.135420382916927 [OpenDryRich,139] 0.0464317373931408 [OpenDryRich,140] 0.260977812968195 [OpenDryRich,154] 0.0693863411340863 [OpenDryRich,156] 0.178985612504184 [OpenDryRich,157] 0.326755856722593 [OpenDryRich,158] 0.335203296132386 [OpenDryRich,159] 0.177865215688944 [OpenDryRich,160] 0.165240413993597 [OpenDryRich,161] 0.0386969104409218 [OpenDryRich,162] 0.00997270217863843 [OpenDryRich,163] 0.189844262704137 [OpenDryRich,175] 0.0848672574386001 [OpenDryRich,176] 0.0611705380678177 [OpenDryRich,177] 0.410025962889195 [OpenDryRich,178] 0.425409001484513 [OpenDryRich,179] 0.473223617561161 [OpenDryRich,180] 0.421756291594356 [OpenDryRich,181] 0.242826135829091 [OpenDryRich,182] 0.146763669792563 [OpenDryRich,183] 0.169004958081059 [OpenDryRich,197] 0.308741729706526 [OpenDryRich,198] 0.434819661453366 [OpenDryRich,199] 0.621170495236293 [OpenDryRich,217] 0.244768960867077 [OpenDryRich,218] 0.355942553021014 [OpenDryRich,219] 0.587330065183342 [OpenDryRich,239] 0.312451982349157 [OpenDryRich,260] 0.131788736581802 [OpenDryRich,261] 0.428322979360819 [OpenDryRich,262] 0.538933907449246 [OpenDryRich,281] 0.114239948987961 [OpenDryRich,282] 0.239937572479248 [OpenDryRich,285] 0.415688834488392 [OpenDryRich,286] 0.181729222424328 [OpenDryRich,303] 0.233277693092823 [OpenDryRich,304] 0.144411299228668 [OpenDryRich,305] 0.160588057041168 [OpenDryRich,307] 0.169474145770073 [OpenWetRich,119] 0.34 [OpenWetRich,136] 0.1 [OpenWetRich,137] 0.12 [OpenWetRich,138] 0.14 [OpenWetRich,139] 0.05 [OpenWetRich,140] 0.27 [OpenWetRich,154] 0.07 [OpenWetRich,156] 0.19 [OpenWetRich,157] 0.35 [OpenWetRich,158] 0.35 [OpenWetRich,159] 0.19 [OpenWetRich,160] 0.18 [OpenWetRich,161] 0.04 [OpenWetRich,162] 0.05 [OpenWetRich,163] 0.22 [OpenWetRich,175] 0.09 [OpenWetRich,176] 0.07 [OpenWetRich,177] 0.44 [OpenWetRich,178] 0.45 [OpenWetRich,179] 0.49 [OpenWetRich,180] 0.43 [OpenWetRich,181] 0.25 [OpenWetRich,182] 0.15 [OpenWetRich,197] 0.34 [OpenWetRich,198] 0.46 [OpenWetRich,199] 0.63 [OpenWetRich,217] 0.25 [OpenWetRich,218] 0.36 [OpenWetRich,219] 0.61 [OpenWetRich,239] 0.34 [OpenWetRich,260] 0.2 [OpenWetRich,261] 0.53 [OpenWetRich,262] 0.56 [OpenWetRich,281] 0.18 [OpenWetRich,282] 0.32 [OpenWetRich,283] 0.44 [OpenWetRich,284] 0.33 [OpenWetRich,285] 0.44 [OpenWetRich,286] 0.19 [OpenWetRich,303] 0.24 [OpenWetRich,304] 0.18 [OpenWetRich,305] 0.19 [OpenWetRich,307] 0.31 ;
param TransitionCost default 1 ; 
param b := 87 ; 
